
Gurobi 12.0.0 (win64) logging started Wed May  6 19:20:30 2026

Set parameter LogFile to value "C:\Users\Asus\Documents\GitHub\logistics-model2\internal-logistics-model2\results\SR_SV_RD\case2\result_SR_SV_RD_case2_P5_eps9999_2026_05_06_19_20.log"
Gurobi Optimizer version 12.0.0 build v12.0.0rc1 (win64 - Windows 10.0 (19045.2))

CPU model: 12th Gen Intel(R) Core(TM) i7-12650H, instruction set [SSE2|AVX|AVX2]
Thread count: 10 physical cores, 16 logical processors, using up to 16 threads

Non-default parameters:
TimeLimit  600
MIPGap  0.01
Presolve  2

Optimize a model with 3852 rows, 1123 columns and 19434 nonzeros
Model fingerprint: 0x46ec6337
Variable types: 158 continuous, 965 integer (935 binary)
Coefficient statistics:
  Matrix range     [1e+00, 5e+02]
  Objective range  [1e-03, 1e+00]
  Bounds range     [1e+00, 3e+01]
  RHS range        [1e+00, 1e+04]
Presolve removed 3585 rows and 1021 columns
Presolve time: 0.01s
Presolved: 267 rows, 102 columns, 1118 nonzeros
Variable types: 29 continuous, 73 integer (65 binary)
Root relaxation presolve removed 10 rows and 0 columns
Root relaxation presolved: 257 rows, 111 columns, 1098 nonzeros


Root relaxation: objective 1.500000e-02, 68 iterations, 0.00 seconds (0.00 work units)

    Nodes    |    Current Node    |     Objective Bounds      |     Work
 Expl Unexpl |  Obj  Depth IntInf | Incumbent    BestBd   Gap | It/Node Time

     0     0    0.01500    0   12          -    0.01500      -     -    0s
H    0     0                      76.1370000    0.01500   100%     -    0s
     0     0    0.01500    0   27   76.13700    0.01500   100%     -    0s
     0     0    0.01500    0   27   76.13700    0.01500   100%     -    0s
H    0     0                      75.1050000    0.01500   100%     -    0s
     0     0    0.02435    0   28   75.10500    0.02435   100%     -    0s
     0     0    0.02700    0   30   75.10500    0.02700   100%     -    0s
     0     0    0.04341    0   35   75.10500    0.04341   100%     -    0s
     0     0    0.04531    0   26   75.10500    0.04531   100%     -    0s
H    0     0                      74.0910000    0.04531   100%     -    0s
     0     0    0.05701    0   30   74.09100    0.05701   100%     -    0s
     0     0    0.05713    0   31   74.09100    0.05713   100%     -    0s
     0     0    0.05809    0   30   74.09100    0.05809   100%     -    0s
     0     0    0.05919    0   31   74.09100    0.05919   100%     -    0s
     0     0    0.05994    0   30   74.09100    0.05994   100%     -    0s
     0     0    0.06043    0   30   74.09100    0.06043   100%     -    0s
     0     0    0.06076    0   31   74.09100    0.06076   100%     -    0s
     0     0    0.06081    0   34   74.09100    0.06081   100%     -    0s
     0     0    0.06259    0   29   74.09100    0.06259   100%     -    0s
     0     0    0.06272    0   33   74.09100    0.06272   100%     -    0s
H    0     0                      73.1060000    0.06305   100%     -    0s
     0     0    0.06305    0   29   73.10600    0.06305   100%     -    0s
     0     0    0.06319    0   33   73.10600    0.06319   100%     -    0s
     0     0    0.06664    0   32   73.10600    0.06664   100%     -    0s
     0     0    0.06748    0   29   73.10600    0.06748   100%     -    0s
     0     0    0.06789    0   32   73.10600    0.06789   100%     -    0s
     0     0    0.06799    0   36   73.10600    0.06799   100%     -    0s
     0     0    0.06911    0   34   73.10600    0.06911   100%     -    0s
     0     0    0.06924    0   34   73.10600    0.06924   100%     -    0s
     0     0    0.06962    0   32   73.10600    0.06962   100%     -    0s
     0     0    0.06962    0   31   73.10600    0.06962   100%     -    0s
H    0     0                      68.0940000    0.06962   100%     -    0s
     0     0    0.06962    0   31   68.09400    0.06962   100%     -    0s
     0     0    0.06962    0   31   68.09400    0.06962   100%     -    0s
     0     0    0.06962    0   30   68.09400    0.06962   100%     -    0s
     0     2    0.06962    0   27   68.09400    0.06962   100%     -    0s
*  955   158              20      67.0850000    0.16300   100%   9.7    0s

Cutting planes:
  Learned: 12
  Gomory: 3
  Cover: 6
  Implied bound: 37
  MIR: 98
  StrongCG: 2
  Inf proof: 10
  RLT: 7
  Relax-and-lift: 13

Explored 1467 nodes (14353 simplex iterations) in 0.25 seconds (0.18 work units)
Thread count was 16 (of 16 available processors)

Solution count 6: 67.085 68.094 73.106 ... 76.137

Optimal solution found (tolerance 1.00e-02)
Best objective 6.708500000000e+01, best bound 6.708499999999e+01, gap 0.0000%
